# x   |  y    | demand	| numItems | l - w (for each item)
40.0	50.0	0.0	0
45.0	68.0	10.0	4	7	5	8	3	5	3	15	2
45.0	70.0	30.0	1	19	3
42.0	66.0	10.0	3	9	5	22	3	15	3
42.0	68.0	10.0	4	5	11	6	8	5	7	6	4
42.0	65.0	10.0	4	7	12	6	5	17	3	11	3
40.0	69.0	20.0	4	5	9	6	4	21	3	9	3
40.0	66.0	20.0	4	5	7	22	3	7	3	23	2
38.0	68.0	20.0	3	4	4	7	3	6	3
38.0	70.0	10.0	3	7	10	11	5	4	2
35.0	66.0	10.0	1	9	2
35.0	69.0	10.0	1	8	5
25.0	85.0	20.0	1	4	3
22.0	75.0	30.0	4	7	6	4	5	22	4	11	3
22.0	85.0	10.0	2	5	11	16	3
20.0	80.0	40.0	4	12	4	7	4	5	4	11	3
20.0	85.0	40.0	4	8	10	7	9	6	8	5	6
18.0	75.0	20.0	4	5	9	6	6	10	3	8	3
15.0	75.0	20.0	4	7	6	21	4	13	3	9	3
15.0	80.0	10.0	2	22	3	15	3
30.0	50.0	10.0	4	7	11	7	10	5	6	7	2
30.0	52.0	20.0	4	6	11	10	5	10	3	10	3
28.0	52.0	20.0	4	10	4	4	3	18	2	12	2
28.0	55.0	10.0	5	7	11	6	5	6	4	6	4	5	4
25.0	50.0	10.0	1	8	3
25.0	52.0	40.0	4	6	4	11	3	9	3	5	2
25.0	55.0	10.0	5	7	11	5	11	9	4	8	4	13	3
23.0	52.0	10.0	4	4	10	7	5	10	4	8	4
23.0	55.0	20.0	2	7	7	23	3
20.0	50.0	10.0	4	4	10	12	5	4	5	19	4
20.0	55.0	10.0	5	7	9	15	4	7	4	18	3	8	2
10.0	35.0	20.0	5	4	9	8	7	11	3	11	3	22	2
10.0	40.0	30.0	2	6	10	5	3
8.0	40.0	40.0	5	5	8	21	4	19	3	4	3	10	2
8.0	45.0	20.0	4	8	8	6	5	18	3	11	2
5.0	35.0	10.0	3	7	3	20	2	5	2
5.0	45.0	10.0	2	6	7	6	2
2.0	40.0	20.0	4	6	5	20	4	5	4	14	3
0.0	40.0	30.0	4	7	5	13	4	7	4	20	3
0.0	45.0	20.0	2	11	6	6	2
35.0	30.0	10.0	1	18	3
35.0	32.0	10.0	4	6	9	11	6	8	3	6	2
33.0	32.0	20.0	1	9	4
33.0	35.0	10.0	1	6	6
32.0	30.0	10.0	3	8	9	24	4	16	2
30.0	30.0	10.0	1	9	5
30.0	32.0	30.0	5	8	9	5	7	13	4	6	3	5	3
30.0	35.0	10.0	4	7	11	5	7	5	4	5	2
28.0	30.0	10.0	5	8	5	12	4	9	4	16	3	10	2
28.0	35.0	10.0	5	6	7	5	5	7	4	6	3	24	2
26.0	32.0	10.0	5	4	11	4	10	8	7	13	2	4	2
25.0	30.0	10.0	3	8	8	16	4	9	4
25.0	35.0	10.0	2	4	7	8	4
44.0	5.0	20.0	5	4	7	5	5	19	3	10	3	8	3
42.0	10.0	40.0	1	9	3
42.0	15.0	10.0	3	6	7	9	4	22	2
40.0	5.0	30.0	2	8	6	13	3
40.0	15.0	40.0	2	5	4	18	2
38.0	5.0	30.0	5	5	8	6	5	7	4	14	3	7	2
38.0	15.0	10.0	2	5	12	4	11
35.0	5.0	20.0	3	10	5	11	3	4	3
50.0	30.0	10.0	1	11	3
50.0	35.0	20.0	1	10	3
50.0	40.0	50.0	1	8	4
48.0	30.0	10.0	2	6	7	5	3
48.0	40.0	10.0	3	11	6	10	4	4	2
47.0	35.0	10.0	5	6	11	7	10	4	10	4	3	5	2
47.0	40.0	10.0	1	16	3
45.0	30.0	10.0	1	5	3
45.0	35.0	10.0	2	5	9	10	3
95.0	30.0	30.0	5	5	5	5	4	22	3	13	3	22	2
95.0	35.0	20.0	1	10	2
53.0	30.0	10.0	5	7	6	5	5	15	4	4	3	11	2
92.0	30.0	10.0	5	4	8	10	6	9	3	16	2	4	2
53.0	35.0	50.0	3	6	7	10	6	4	6
45.0	65.0	20.0	1	9	4
90.0	35.0	10.0	2	8	11	8	8
88.0	30.0	10.0	5	8	5	6	5	12	4	18	3	5	3
88.0	35.0	20.0	4	6	6	6	6	16	4	4	2
87.0	30.0	10.0	4	6	4	5	4	21	3	8	3
85.0	25.0	10.0	2	16	3	6	3
85.0	35.0	30.0	4	6	4	5	4	19	3	7	2
75.0	55.0	20.0	5	10	6	24	3	9	3	18	2	6	2
72.0	55.0	10.0	5	6	7	5	5	18	4	5	3	6	2
70.0	58.0	20.0	2	21	3	9	3
68.0	60.0	30.0	5	6	6	7	5	7	5	8	2	5	2
66.0	55.0	10.0	5	8	4	6	4	11	3	10	3	8	2
65.0	55.0	20.0	2	8	11	7	2
65.0	60.0	30.0	3	7	9	6	5	7	2
63.0	58.0	10.0	2	4	4	4	3
60.0	55.0	10.0	3	8	11	23	4	14	3
60.0	60.0	10.0	1	7	5
67.0	85.0	20.0	3	7	9	6	4	7	2
65.0	85.0	40.0	3	4	8	11	3	9	3
65.0	82.0	10.0	3	11	4	6	4	8	2
62.0	80.0	30.0	1	7	7
60.0	80.0	10.0	5	6	9	17	4	17	3	6	3	5	3
60.0	85.0	30.0	1	8	4
58.0	75.0	20.0	4	8	7	9	6	9	6	10	3
55.0	80.0	10.0	2	5	10	5	3
55.0	85.0	20.0	4	5	8	6	7	5	4	20	3